r = [
0,8,1,26,31,13,21,20,9,28,11,17,4,29,11,29,30,12,18,20,25,23,26,8,26,27,0
];
p = [
0,11,24,19,14,4,3,3,1,18,4,21,8,14,18,4,5,5,16,26,9,13,25,14,5,27,0
];
e = [
0,5,16,15,5,2,11,17,13,5,12,9,10,7,15,16,15,14,12,8,11,5,14,10,3,6,0
];
d = [
0,220,230,330,296,218,325,270,300,293,324,368,284,316,253,234,291,330,269,303,293,331,329,315,262,238,379
];
d_bar = [
0,226,242,340,303,220,327,272,301,302,326,379,288,323,262,236,294,333,277,316,298,338,342,322,265,252,379
];
w = [
0,0.833333333,1.333333333,1.5,0.714285714,1,5.5,8.5,13,0.555555556,6,0.818181818,2.5,1,1.666666667,8,5,4.666666667,1.5,0.615384615,2.2,0.714285714,1.076923077,1.428571429,1,0.428571429,0
];
